unsat
(forall ((A (_ BitVec 57))
         (B (_ BitVec 48))
         (C (_ BitVec 19))
         (D (_ BitVec 21))
         (E (_ BitVec 16))
         (F (_ BitVec 21))
         (G (_ BitVec 12))
         (H (_ BitVec 12))
         (I (_ BitVec 21))
         (J (_ BitVec 12))
         (K (_ BitVec 19))
         (L (_ BitVec 3))
         (M (_ BitVec 19))
         (N (_ BitVec 35))
         (O (_ BitVec 35))
         (P (_ BitVec 19))
         (Q (_ BitVec 19))
         (R (_ BitVec 19))
         (S (_ BitVec 16))
         (T (_ BitVec 16))
         (U (_ BitVec 16))
         (V (_ BitVec 19))
         (W (_ BitVec 16))
         (X (_ BitVec 28))
         (Y (_ BitVec 19))
         (Z (_ BitVec 12))
         (A1 (_ BitVec 15))
         (B1 (_ BitVec 15))
         (C1 (_ BitVec 1))
         (D1 (_ BitVec 1))
         (E1 (_ BitVec 19))
         (F1 (_ BitVec 19))
         (G1 (_ BitVec 35))
         (H1 (_ BitVec 1))
         (I1 (_ BitVec 1))
         (J1 (_ BitVec 19))
         (K1 (_ BitVec 1))
         (L1 (_ BitVec 21))
         (M1 (_ BitVec 1))
         (N1 (_ BitVec 1))
         (O1 (_ BitVec 1))
         (P1 (_ BitVec 19))
         (Q1 (_ BitVec 35))
         (R1 (_ BitVec 1))
         (S1 (_ BitVec 21))
         (T1 (_ BitVec 1))
         (U1 (_ BitVec 16))
         (V1 (_ BitVec 16))
         (W1 (_ BitVec 19))
         (X1 (_ BitVec 1))
         (Y1 (_ BitVec 36))
         (Z1 (_ BitVec 1))
         (A2 (_ BitVec 8))
         (B2 (_ BitVec 1))
         (C2 (_ BitVec 36))
         (D2 (_ BitVec 28))
         (E2 (_ BitVec 35))
         (F2 (_ BitVec 19))
         (G2 (_ BitVec 19))
         (H2 (_ BitVec 21))
         (I2 (_ BitVec 1))
         (J2 (_ BitVec 19))
         (K2 (_ BitVec 19))
         (L2 (_ BitVec 1))
         (M2 (_ BitVec 19))
         (N2 (_ BitVec 19))
         (O2 (_ BitVec 19))
         (P2 (_ BitVec 28))
         (Q2 (_ BitVec 1))
         (R2 (_ BitVec 36))
         (S2 (_ BitVec 28))
         (T2 (_ BitVec 1)))
  (! (let ((a!1 (= ((_ extract 10 2)
                     (bvadd ((_ extract 34 8) Q1) (concat #b000000 F)))
                   ((_ extract 18 10) Q)))
           (a!2 (or (= M1 #b1)
                    (not (= D1 #b0))
                    (= I1 #b1)
                    (not (= ((_ extract 0 0) S) #b1))))
           (a!3 (= ((_ extract 12 4)
                     (bvadd ((_ extract 34 6) E2) (concat #x00 H2)))
                   ((_ extract 18 10) R)))
           (a!4 (= ((_ extract 26 11)
                     (bvadd ((_ extract 34 8) Q1) (concat #b000000 F)))
                   #x0000))
           (a!5 (= ((_ extract 30 15)
                     (bvadd (concat #b0000000000 I) ((_ extract 34 4) O)))
                   #x0000))
           (a!6 (= ((_ extract 28 13)
                     (bvadd ((_ extract 34 6) E2) (concat #x00 H2)))
                   #x0000))
           (a!7 (or (not (= D1 #b1)) (not (= ((_ extract 0 0) S) #b1))))
           (a!8 (or (= M1 #b1)
                    (not (= D1 #b0))
                    (not (= ((_ extract 0 0) T) #b1))))
           (a!9 (or (not (= M1 #b1)) (not (= ((_ extract 0 0) T) #b1))))
           (a!10 (or (not (= ((_ extract 0 0) T) #b1)) (= H1 #b1)))
           (a!11 (or (not (= D1 #b1))
                     (not (= H1 #b1))
                     (not (= ((_ extract 0 0) T) #b1))))
           (a!12 ((_ extract 21 17)
                   (bvadd (concat #b000 ((_ extract 20 2) S1)) (concat #b0 L1))))
           (a!13 (= ((_ extract 14 6)
                      (bvadd (concat #b0000000000 I) ((_ extract 34 4) O)))
                    ((_ extract 18 10) M2)))
           (a!14 (concat #b000
                         (ite (= ((_ extract 2 1) L) #b00)
                              #b0000000000000000000
                              ((_ extract 20 2) S1))))
           (a!16 (= (ite (= ((_ extract 2 1) L) #b00) W #x0001) #x0001))
           (a!17 (concat #b000
                         (ite (= ((_ extract 2 1) L) #b00)
                              (concat #b00 ((_ extract 18 2) V))
                              ((_ extract 20 2) S1))))
           (a!18 (bvadd ((_ extract 1 0) L1)
                        (ite (= ((_ extract 2 1) L) #b00)
                             ((_ extract 3 2) V)
                             ((_ extract 3 2) S1))))
           (a!20 (bvnot (bvor (bvnot ((_ extract 1 0) V))
                              (bvnot ((_ extract 2 1) V)))))
           (a!25 (bvnot (bvor (bvnot ((_ extract 17 0) V))
                              (bvnot ((_ extract 18 1) V)))))
           (a!29 (ite (= ((_ extract 0 0) W) #b1)
                      (concat #b0
                              ((_ extract 18 18) V)
                              (bvxor ((_ extract 17 1) V) ((_ extract 18 2) V))
                              ((_ extract 0 0) V)
                              ((_ extract 0 0) V))
                      (concat #b0
                              ((_ extract 18 18) V)
                              (bvxor ((_ extract 17 1) V) ((_ extract 18 2) V))
                              ((_ extract 0 0) V)
                              #b0)))
           (a!30 (ite (= ((_ extract 0 0) W) #b1)
                      (concat #b0
                              ((_ extract 18 18) V)
                              (bvxor ((_ extract 17 1) V) ((_ extract 18 2) V))
                              #b0
                              ((_ extract 0 0) V))
                      (concat #b0
                              ((_ extract 18 18) V)
                              (bvxor ((_ extract 17 1) V) ((_ extract 18 2) V))
                              #b00)))
           (a!32 (ite (= ((_ extract 0 0) W) #b1)
                      (concat #b0
                              ((_ extract 18 18) V)
                              ((_ extract 18 2) V)
                              (bvxor ((_ extract 0 0) V) ((_ extract 1 1) V))
                              ((_ extract 0 0) V))
                      (concat #b0
                              ((_ extract 18 18) V)
                              ((_ extract 18 2) V)
                              (bvxor ((_ extract 0 0) V) ((_ extract 1 1) V))
                              #b0)))
           (a!34 (ite (= ((_ extract 1 1) W) #b1)
                      (ite (= ((_ extract 0 0) W) #b1)
                           (concat #b0
                                   ((_ extract 18 18) V)
                                   ((_ extract 18 2) V)
                                   ((_ extract 0 0) V)
                                   ((_ extract 0 0) V))
                           (concat #b0
                                   ((_ extract 18 18) V)
                                   ((_ extract 18 2) V)
                                   ((_ extract 0 0) V)
                                   #b0))
                      (ite (= ((_ extract 0 0) W) #b1)
                           (concat #b0
                                   ((_ extract 18 18) V)
                                   ((_ extract 18 2) V)
                                   #b0
                                   ((_ extract 0 0) V))
                           (concat #b0
                                   ((_ extract 18 18) V)
                                   ((_ extract 18 2) V)
                                   #b00))))
           (a!41 (ite (= ((_ extract 1 1) W) #b1)
                      (ite (= ((_ extract 0 0) W) #b1)
                           (concat #b0 V ((_ extract 0 0) V))
                           (concat #b0 V #b0))
                      (ite (= ((_ extract 0 0) W) #b1)
                           (concat #b0
                                   ((_ extract 18 1) V)
                                   #b0
                                   ((_ extract 0 0) V))
                           (concat #b0 ((_ extract 18 1) V) #b00))))
           (a!42 (ite (= ((_ extract 0 0) W) #b1)
                      (concat #b0
                              ((_ extract 18 18) V)
                              #b00000000000000000
                              (bvxor ((_ extract 0 0) V) ((_ extract 1 1) V))
                              ((_ extract 0 0) V))
                      (concat #b0
                              ((_ extract 18 18) V)
                              #b00000000000000000
                              (bvxor ((_ extract 0 0) V) ((_ extract 1 1) V))
                              #b0)))
           (a!44 (ite (= ((_ extract 1 1) W) #b1)
                      (ite (= ((_ extract 0 0) W) #b1)
                           (concat #b0
                                   ((_ extract 18 18) V)
                                   #b00000000000000000
                                   ((_ extract 0 0) V)
                                   ((_ extract 0 0) V))
                           (concat #b0
                                   ((_ extract 18 18) V)
                                   #b00000000000000000
                                   ((_ extract 0 0) V)
                                   #b0))
                      (ite (= ((_ extract 0 0) W) #b1)
                           (concat #b0
                                   ((_ extract 18 18) V)
                                   #b000000000000000000
                                   ((_ extract 0 0) V))
                           (concat #b0
                                   ((_ extract 18 18) V)
                                   #b0000000000000000000))))
           (a!49 (ite (= ((_ extract 0 0) W) #b1)
                      (concat #b00
                              (bvxor ((_ extract 17 1) V) ((_ extract 18 2) V))
                              ((_ extract 0 0) V)
                              ((_ extract 0 0) V))
                      (concat #b00
                              (bvxor ((_ extract 17 1) V) ((_ extract 18 2) V))
                              ((_ extract 0 0) V)
                              #b0)))
           (a!50 (ite (= ((_ extract 0 0) W) #b1)
                      (concat #b00
                              (bvxor ((_ extract 17 1) V) ((_ extract 18 2) V))
                              #b0
                              ((_ extract 0 0) V))
                      (concat #b00
                              (bvxor ((_ extract 17 1) V) ((_ extract 18 2) V))
                              #b00)))
           (a!52 (ite (= ((_ extract 0 0) W) #b1)
                      (concat #b00
                              ((_ extract 18 2) V)
                              (bvxor ((_ extract 0 0) V) ((_ extract 1 1) V))
                              ((_ extract 0 0) V))
                      (concat #b00
                              ((_ extract 18 2) V)
                              (bvxor ((_ extract 0 0) V) ((_ extract 1 1) V))
                              #b0)))
           (a!54 (ite (= ((_ extract 1 1) W) #b1)
                      (ite (= ((_ extract 0 0) W) #b1)
                           (concat #b00
                                   ((_ extract 18 2) V)
                                   ((_ extract 0 0) V)
                                   ((_ extract 0 0) V))
                           (concat #b00
                                   ((_ extract 18 2) V)
                                   ((_ extract 0 0) V)
                                   #b0))
                      (ite (= ((_ extract 0 0) W) #b1)
                           (concat #b00
                                   ((_ extract 18 2) V)
                                   #b0
                                   ((_ extract 0 0) V))
                           (concat #b00 ((_ extract 18 2) V) #b00))))
           (a!61 (ite (= ((_ extract 1 1) W) #b1)
                      (ite (= ((_ extract 0 0) W) #b1)
                           (concat #b00
                                   ((_ extract 17 0) V)
                                   ((_ extract 0 0) V))
                           (concat #b00 ((_ extract 17 0) V) #b0))
                      (ite (= ((_ extract 0 0) W) #b1)
                           (concat #b00
                                   ((_ extract 17 1) V)
                                   #b0
                                   ((_ extract 0 0) V))
                           (concat #b00 ((_ extract 17 1) V) #b00))))
           (a!62 (ite (= ((_ extract 0 0) W) #b1)
                      (concat #b0000000000000000000
                              (bvxor ((_ extract 0 0) V) ((_ extract 1 1) V))
                              ((_ extract 0 0) V))
                      (concat #b0000000000000000000
                              (bvxor ((_ extract 0 0) V) ((_ extract 1 1) V))
                              #b0)))
           (a!64 (concat #b0000000000000000000
                         ((_ extract 0 0) V)
                         (ite (= ((_ extract 0 0) W) #b1)
                              ((_ extract 0 0) V)
                              #b0)))
           (a!65 (concat #x00000
                         (ite (= ((_ extract 0 0) W) #b1)
                              ((_ extract 0 0) V)
                              #b0)))
           (a!70 ((_ extract 7 2)
                   (bvadd (concat #b000 ((_ extract 20 2) S1)) (concat #b0 L1))))
           (a!73 ((_ extract 16 8)
                   (bvadd (concat #b000 ((_ extract 20 2) S1)) (concat #b0 L1)))))
     (let ((a!15 (= ((_ extract 21 17) (bvadd (concat #b0 L1) a!14)) #b00000))
           (a!19 (concat ((_ extract 7 2) (bvadd (concat #b0 L1) a!17))
                         a!18
                         (ite (= ((_ extract 2 1) L) #b00)
                              ((_ extract 1 0) V)
                              ((_ extract 1 0) S1))))
           (a!21 (ite (= ((_ extract 0 0) W) #b1)
                      (bvadd (bvxor ((_ extract 2 1) V) ((_ extract 3 2) V))
                             a!20)
                      (bvxor ((_ extract 2 1) V) ((_ extract 3 2) V))))
           (a!22 (ite (= ((_ extract 1 1) W) #b1)
                      (ite (= ((_ extract 0 0) W) #b1)
                           (bvadd ((_ extract 2 1) V) a!20)
                           ((_ extract 2 1) V))
                      #b00))
           (a!26 (bvadd (concat #b0
                                ((_ extract 18 18) V)
                                (bvxor ((_ extract 17 1) V)
                                       ((_ extract 18 2) V)))
                        (concat #b0 a!25)))
           (a!33 (ite (= ((_ extract 1 1) W) #b1)
                      a!32
                      (ite (= ((_ extract 0 0) W) #b1)
                           (concat #b0 ((_ extract 18 18) V) V)
                           (concat #b0
                                   ((_ extract 18 18) V)
                                   ((_ extract 18 1) V)
                                   #b0))))
           (a!36 (concat (bvadd (concat #b0 ((_ extract 18 1) V))
                                (concat #b0 a!25))
                         (bvxor ((_ extract 0 0) V) ((_ extract 1 1) V))
                         ((_ extract 0 0) V)))
           (a!37 (concat (bvadd (concat #b0 ((_ extract 18 1) V))
                                (concat #b0 a!25))
                         (bvxor ((_ extract 0 0) V) ((_ extract 1 1) V))
                         #b0))
           (a!38 (concat (bvadd (concat #b0 ((_ extract 18 1) V))
                                (concat #b0 a!25))
                         ((_ extract 1 0) V)))
           (a!39 (concat (bvadd (concat #b0 ((_ extract 18 1) V))
                                (concat #b0 a!25))
                         ((_ extract 1 1) V)
                         #b0))
           (a!43 (ite (= ((_ extract 1 1) W) #b1)
                      a!42
                      (ite (= ((_ extract 0 0) W) #b1)
                           (concat #b0
                                   ((_ extract 18 18) V)
                                   #b00000000000000000
                                   ((_ extract 1 0) V))
                           (concat #b0
                                   ((_ extract 18 18) V)
                                   #b00000000000000000
                                   ((_ extract 1 1) V)
                                   #b0))))
           (a!46 (bvadd (concat #b00
                                (bvxor ((_ extract 17 1) V)
                                       ((_ extract 18 2) V)))
                        (concat #b0 a!25)))
           (a!53 (ite (= ((_ extract 1 1) W) #b1)
                      a!52
                      (ite (= ((_ extract 0 0) W) #b1)
                           (concat #b00 V)
                           (concat #b00 ((_ extract 18 1) V) #b0))))
           (a!56 (concat (bvadd (concat #b00 ((_ extract 17 1) V))
                                (concat #b0 a!25))
                         (bvxor ((_ extract 0 0) V) ((_ extract 1 1) V))
                         ((_ extract 0 0) V)))
           (a!57 (concat (bvadd (concat #b00 ((_ extract 17 1) V))
                                (concat #b0 a!25))
                         (bvxor ((_ extract 0 0) V) ((_ extract 1 1) V))
                         #b0))
           (a!58 (concat (bvadd (concat #b00 ((_ extract 17 1) V))
                                (concat #b0 a!25))
                         ((_ extract 1 0) V)))
           (a!59 (concat (bvadd (concat #b00 ((_ extract 17 1) V))
                                (concat #b0 a!25))
                         ((_ extract 1 1) V)
                         #b0))
           (a!63 (ite (= ((_ extract 1 1) W) #b1)
                      a!62
                      (ite (= ((_ extract 0 0) W) #b1)
                           (concat #b0000000000000000000 ((_ extract 1 0) V))
                           (concat #b0000000000000000000
                                   ((_ extract 1 1) V)
                                   #b0))))
           (a!71 (= (concat a!70
                            (bvadd ((_ extract 1 0) L1) ((_ extract 3 2) S1))
                            ((_ extract 1 0) S1))
                    ((_ extract 9 0) C)))
           (a!72 (= ((_ extract 18 10) C)
                    ((_ extract 16 8) (bvadd (concat #b0 L1) a!14)))))
     (let ((a!23 (ite (= ((_ extract 0 0) W) #b1)
                      (ite (= ((_ extract 1 1) W) #b1) a!21 ((_ extract 3 2) V))
                      a!22))
           (a!27 (ite (= ((_ extract 0 0) W) #b1)
                      (concat a!26
                              (bvxor ((_ extract 0 0) V) ((_ extract 1 1) V))
                              ((_ extract 0 0) V))
                      (concat a!26
                              (bvxor ((_ extract 0 0) V) ((_ extract 1 1) V))
                              #b0)))
           (a!40 (ite (= ((_ extract 1 1) W) #b1)
                      (ite (= ((_ extract 0 0) W) #b1) a!36 a!37)
                      (ite (= ((_ extract 0 0) W) #b1) a!38 a!39)))
           (a!47 (ite (= ((_ extract 0 0) W) #b1)
                      (concat a!46
                              (bvxor ((_ extract 0 0) V) ((_ extract 1 1) V))
                              ((_ extract 0 0) V))
                      (concat a!46
                              (bvxor ((_ extract 0 0) V) ((_ extract 1 1) V))
                              #b0)))
           (a!60 (ite (= ((_ extract 1 1) W) #b1)
                      (ite (= ((_ extract 0 0) W) #b1) a!56 a!57)
                      (ite (= ((_ extract 0 0) W) #b1) a!58 a!59)))
           (a!66 (ite (= ((_ extract 0 0) W) #b1)
                      a!63
                      (ite (= ((_ extract 1 1) W) #b1) a!64 a!65))))
     (let ((a!24 (= ((_ extract 3 2) S1)
                    (ite (= ((_ extract 2 1) L) #b00) a!23 ((_ extract 3 2) S1))))
           (a!28 (ite (= ((_ extract 1 1) W) #b1)
                      a!27
                      (ite (= ((_ extract 0 0) W) #b1)
                           (concat a!26 ((_ extract 1 0) V))
                           (concat a!26 ((_ extract 1 1) V) #b0))))
           (a!45 (ite (= ((_ extract 1 1) W) #b1)
                      (ite (= ((_ extract 0 0) W) #b1) a!40 a!41)
                      (ite (= ((_ extract 0 0) W) #b1) a!43 a!44)))
           (a!48 (ite (= ((_ extract 1 1) W) #b1)
                      a!47
                      (ite (= ((_ extract 0 0) W) #b1)
                           (concat a!46 ((_ extract 1 0) V))
                           (concat a!46 ((_ extract 1 1) V) #b0))))
           (a!67 (ite (= ((_ extract 1 1) W) #b1)
                      (ite (= ((_ extract 0 0) W) #b1) a!60 a!61)
                      a!66)))
     (let ((a!31 (ite (= ((_ extract 0 0) W) #b1)
                      a!28
                      (ite (= ((_ extract 1 1) W) #b1) a!29 a!30)))
           (a!51 (ite (= ((_ extract 0 0) W) #b1)
                      a!48
                      (ite (= ((_ extract 1 1) W) #b1) a!49 a!50))))
     (let ((a!35 (ite (= ((_ extract 1 1) W) #b1)
                      a!31
                      (ite (= ((_ extract 0 0) W) #b1) a!33 a!34)))
           (a!55 (ite (= ((_ extract 1 1) W) #b1)
                      a!51
                      (ite (= ((_ extract 0 0) W) #b1) a!53 a!54))))
     (let ((a!68 (ite (= ((_ extract 1 1) W) #b1)
                      (ite (= ((_ extract 0 0) W) #b1) a!35 a!45)
                      (ite (= ((_ extract 0 0) W) #b1) a!55 a!67))))
     (let ((a!69 (= ((_ extract 1 0) S1)
                    (ite (= ((_ extract 2 1) L) #b00)
                         ((_ extract 1 0) a!68)
                         ((_ extract 1 0) S1)))))
     (let ((a!74 (and (= ((_ extract 18 10) Q1) ((_ extract 18 10) Q))
                      (= T1 #b0)
                      (not ((_ bit2bool 18) F1))
                      (or (not ((_ bit2bool 0) B2)) (not (= D1 #b1)) (= L2 #b0))
                      (or (= L2 #b0)
                          ((_ bit2bool 0) M1)
                          (not ((_ bit2bool 0) B2)))
                      (not ((_ bit2bool 0) J))
                      (not ((_ bit2bool 1) J))
                      a!1
                      (or (not ((_ bit2bool 0) S)) (not (= M1 #b1)))
                      (or ((_ bit2bool 1) L) (not (= M1 #b1)) (= L #b000))
                      (not (= ((_ extract 0 0) U) #b1))
                      a!2
                      (not ((_ bit2bool 4) J))
                      (not ((_ bit2bool 2) H))
                      (not ((_ bit2bool 0) G))
                      (or (not ((_ bit2bool 0) S)) (not (= I1 #b1)))
                      (not ((_ bit2bool 1) H))
                      (or (= L #b011) (not (= I1 #b1)))
                      a!3
                      (or ((_ bit2bool 1) L) (not (= D1 #b1)))
                      (not ((_ bit2bool 1) Z))
                      (not ((_ bit2bool 0) Z))
                      (not (= ((_ extract 0 0) E) #b1))
                      (not ((_ bit2bool 3) G))
                      (not ((_ bit2bool 2) G))
                      (not ((_ bit2bool 1) G))
                      (not ((_ bit2bool 5) H))
                      (not ((_ bit2bool 3) H))
                      (not ((_ bit2bool 4) H))
                      (not ((_ bit2bool 0) H))
                      a!4
                      a!5
                      a!6
                      a!7
                      a!8
                      (or (= L #b011) (= I1 #b1) (not (= C1 #b0)))
                      (or ((_ bit2bool 1) L)
                          (= M1 #b1)
                          (= D1 #b1)
                          (not (= H1 #b0)))
                      (or (= L2 #b0) (not (= C1 #b1)))
                      (or (= L #b011) (not (= C1 #b1)))
                      (or (not ((_ bit2bool 0) V1)) (= D1 #b1))
                      (or (not ((_ bit2bool 0) V1)) (not (= R1 #b1)))
                      (not ((_ bit2bool 5) J))
                      (or (not (= D1 #b1))
                          (not ((_ bit2bool 0) V1))
                          (not (= R1 #b0)))
                      a!9
                      (or (= M1 #b1)
                          (not (= D1 #b0))
                          (= I1 #b1)
                          (not ((_ bit2bool 0) U1)))
                      a!10
                      a!11
                      (or (= M1 #b1) (not (= H1 #b1)) (not ((_ bit2bool 0) U1)))
                      (or (not ((_ bit2bool 0) U1)) (not (= C1 #b1)))
                      (= a!12 #b00000)
                      (or (= M1 #b1)
                          (not (= R1 #b1))
                          (= I1 #b1)
                          (not ((_ bit2bool 0) U1)))
                      (not ((_ bit2bool 3) J))
                      (not ((_ bit2bool 6) J))
                      a!13
                      (not ((_ bit2bool 7) J))
                      (not ((_ bit2bool 2) J))
                      a!15
                      (= ((_ extract 34 19) Q1) #x0000)
                      (or (not (= U1 #x0001))
                          (= ((_ extract 9 0) S1) ((_ extract 9 0) C)))
                      (or (not (= M1 #b1))
                          (not (= U1 #x0001))
                          (not a!16)
                          (= ((_ extract 9 0) C) a!19)
                          (not a!24)
                          (not a!69))
                      (or (not (= U1 #x0001)) a!71)
                      (= ((_ extract 18 10) C) ((_ extract 18 10) S1))
                      a!72
                      (= ((_ extract 18 10) C) a!73))))
       (= (INV!slice!1 A
                       B
                       C
                       D
                       E
                       F
                       G
                       H
                       I
                       J
                       K
                       L
                       M
                       N
                       O
                       P
                       Q
                       R
                       S
                       T
                       U
                       V
                       W
                       X
                       Y
                       Z
                       A1
                       B1
                       C1
                       D1
                       E1
                       F1
                       G1
                       H1
                       I1
                       J1
                       K1
                       L1
                       M1
                       N1
                       O1
                       P1
                       Q1
                       R1
                       S1
                       T1
                       U1
                       V1
                       W1
                       X1
                       Y1
                       Z1
                       A2
                       B2
                       C2
                       D2
                       E2
                       F2
                       G2
                       H2
                       I2
                       J2
                       K2
                       L2
                       M2
                       N2
                       O2
                       P2
                       Q2
                       R2
                       S2
                       T2)
          a!74))))))))))
     :weight 0))
